Ba8 Sn8 F31
1.0
8.845087 0.000000 0.000000
0.000000 8.845087 0.000000
0.000000 0.000000 11.214510
Ba Sn F
8 8 31
direct
0.375000 0.375000 0.632317 Ba
0.375000 0.875000 0.632317 Ba
0.875000 0.375000 0.632317 Ba
0.875000 0.875000 0.632317 Ba
0.125000 0.125000 0.367683 Ba
0.125000 0.625000 0.367683 Ba
0.625000 0.125000 0.367683 Ba
0.625000 0.625000 0.367683 Ba
0.375000 0.375000 0.128684 Sn
0.375000 0.875000 0.128684 Sn
0.875000 0.375000 0.128684 Sn
0.875000 0.875000 0.128684 Sn
0.125000 0.125000 0.871316 Sn
0.125000 0.625000 0.871316 Sn
0.625000 0.125000 0.871316 Sn
0.625000 0.625000 0.871316 Sn
0.375000 0.125000 0.812955 F
0.375000 0.625000 0.812955 F
0.875000 0.125000 0.812955 F
0.875000 0.625000 0.812955 F
0.125000 0.375000 0.812955 F
0.125000 0.875000 0.812955 F
0.625000 0.375000 0.812955 F
0.625000 0.875000 0.812955 F
0.125000 0.375000 0.187045 F
0.125000 0.875000 0.187045 F
0.625000 0.375000 0.187045 F
0.625000 0.875000 0.187045 F
0.375000 0.125000 0.187045 F
0.375000 0.625000 0.187045 F
0.875000 0.125000 0.187045 F
0.875000 0.625000 0.187045 F
0.375000 0.125000 0.500000 F
0.375000 0.625000 0.500000 F
0.875000 0.125000 0.500000 F
0.875000 0.625000 0.500000 F
0.125000 0.375000 0.500000 F
0.125000 0.875000 0.500000 F
0.625000 0.875000 0.500000 F
0.375000 0.375000 0.317010 F
0.375000 0.875000 0.317010 F
0.875000 0.375000 0.317010 F
0.875000 0.875000 0.317010 F
0.125000 0.125000 0.682990 F
0.125000 0.625000 0.682990 F
0.625000 0.125000 0.682990 F
0.625000 0.625000 0.682990 F
